20
10	23	37	1	99
8	45	77	70	36
6	72	82	77	41
9	43	56	2	59
8	21	38	20	45
3	113	58	61	92
1	95	60	93	75
5	29	54	28	37
8	104	71	60	85
3	26	118	14	18
7	4	124	37	79
2	65	115	2	29
6	35	104	42	54
8	45	102	5	85
5	90	27	43	54
2	36	75	12	69
3	22	31	11	15
8	91	80	38	86
5	92	46	70	24
6	84	22	74	11
